NAME : kroE100-R-5-3-a.27256.tour
COMMENT : Length = 27256
COMMENT : Found by LKH-3 [Keld Helsgaun] Tue Jul 30 13:14:56 2024
TYPE : TOUR
DIMENSION : 100
TOUR_SECTION
1
74
21
7
83
73
16
44
61
71
79
46
3
51
98
36
95
64
62
84
17
99
54
97
80
57
31
66
13
75
27
92
70
37
78
53
34
6
55
91
93
30
42
22
86
39
43
19
94
18
24
29
100
77
85
96
11
2
4
82
67
41
87
9
10
60
50
49
56
20
15
23
28
59
58
32
12
76
63
88
35
40
45
25
65
8
5
90
48
33
38
68
72
52
14
89
81
26
47
69
-1
EOF
